(set-option :print-success false)
(set-logic QF_UF)
(declare-sort x68 0)
(declare-sort x77 0)
(declare-fun x59 () x77)
(declare-fun x44 () x77)
(declare-fun x155 () x77)
(declare-fun x21 () x77)
(declare-fun x147 (x77 x77) x77)
(declare-fun x106 (x77 x77) x77)
(declare-fun x125 () x77)
(assert (or (and (and (and (not (= (x106 (x106 x59 x155) x155) x59)) (and (not (= x125 (x106 (x106 x125 x155) x155))) (not (= x44 (x106 (x106 x44 x155) x155))))) (not (= (x106 (x106 x21 x155) x155) x21))) (not (= (x106 (x106 x155 x155) x155) x155))) (or (or (or (and (not (= x155 (x106 (x106 x155 x125) x125))) (and (and (and (not (= x125 (x106 (x106 x125 x125) x125))) (not (= (x106 (x106 x44 x125) x125) x44))) (not (= (x106 (x106 x59 x125) x125) x59))) (not (= (x106 (x106 x21 x125) x125) x21)))) (and (not (= x155 (x106 (x106 x155 x44) x44))) (and (not (= x21 (x106 (x106 x21 x44) x44))) (and (and (not (= (x106 (x106 x125 x44) x44) x125)) (not (= x44 (x106 (x106 x44 x44) x44)))) (not (= x59 (x106 (x106 x59 x44) x44))))))) (and (not (= (x106 (x106 x155 x59) x59) x155)) (and (not (= x21 (x106 (x106 x21 x59) x59))) (and (not (= x59 (x106 (x106 x59 x59) x59))) (and (not (= x125 (x106 (x106 x125 x59) x59))) (not (= x44 (x106 (x106 x44 x59) x59)))))))) (and (and (not (= x21 (x106 (x106 x21 x21) x21))) (and (and (not (= x44 (x106 (x106 x44 x21) x21))) (not (= (x106 (x106 x125 x21) x21) x125))) (not (= x59 (x106 (x106 x59 x21) x21))))) (not (= (x106 (x106 x155 x21) x21) x155))))))
(assert (let ((x132 (x106 x155 x125)) (x52 (x106 x59 x59)) (x111 (x106 x44 x59)) (x56 (x106 x59 x21)) (x103 (x106 x21 x21)) (x115 (x106 x125 x125)) (x109 (x106 x21 x44)) (x61 (x106 x59 x44)) (x42 (x106 x155 x21)) (x46 (x106 x59 x125)) (x75 (x106 x59 x155)) (x113 (x106 x21 x125)) (x156 (x106 x155 x44)) (x31 (x106 x155 x155)) (x2 (x106 x21 x59)) (x14 (x106 x125 x44)) (x20 (x106 x125 x155)) (x60 (x106 x44 x21)) (x126 (x106 x44 x44)) (x95 (x106 x21 x155)) (x38 (x106 x44 x125)) (x25 (x106 x155 x59)) (x146 (x106 x125 x59)) (x122 (x106 x44 x155)) (x33 (x106 x125 x21))) (or (and (not (= (x106 x31 x31) x155)) (and (and (and (not (= x125 (x106 x132 x132))) (not (= (x106 x156 x156) x44))) (not (= x59 (x106 x25 x25)))) (not (= (x106 x42 x42) x21)))) (or (or (or (and (not (= x155 (x106 x20 x20))) (and (not (= x21 (x106 x33 x33))) (and (not (= (x106 x146 x146) x59)) (and (not (= x44 (x106 x14 x14))) (not (= x125 (x106 x115 x115))))))) (and (and (and (and (not (= x44 (x106 x126 x126))) (not (= (x106 x38 x38) x125))) (not (= x59 (x106 x111 x111)))) (not (= x21 (x106 x60 x60)))) (not (= x155 (x106 x122 x122))))) (and (and (not (= (x106 x56 x56) x21)) (and (and (not (= (x106 x46 x46) x125)) (not (= x44 (x106 x61 x61)))) (not (= x59 (x106 x52 x52))))) (not (= (x106 x75 x75) x155)))) (and (not (= (x106 x95 x95) x155)) (and (not (= (x106 x103 x103) x21)) (and (not (= x59 (x106 x2 x2))) (and (not (= x44 (x106 x109 x109))) (not (= (x106 x113 x113) x125))))))))))
(assert (not (and (and (= (x106 x155 x21) x44) (and (and (and (and (and (= (x106 x21 x21) x21) (and (= (x106 x21 x59) x155) (and (and (and (= x21 (x106 x59 x155)) (and (and (= x44 (x106 x59 x59)) (and (= x155 (x106 x59 x44)) (and (= x59 (x106 x59 x125)) (and (= (x106 x44 x155) x155) (and (= (x106 x44 x21) x59) (and (= (x106 x44 x59) x125) (and (= x44 (x106 x44 x44)) (and (= (x106 x44 x125) x21) (and (= x59 (x106 x125 x155)) (and (and (= (x106 x125 x59) x21) (and (= (x106 x125 x44) x125) (= (x106 x125 x125) x44))) (= (x106 x125 x21) x155))))))))))) (= x125 (x106 x59 x21)))) (= (x106 x21 x125) x125)) (= x59 (x106 x21 x44))))) (= (x106 x21 x155) x44)) (= (x106 x155 x125) x155)) (= x21 (x106 x155 x44))) (= (x106 x155 x59) x59))) (= (x106 x155 x155) x125))))
(assert (or (and (not (= (x106 (x106 x155 x155) x155) x155)) (and (and (and (not (= x155 (x106 (x106 x44 x155) x44))) (not (= x155 (x106 (x106 x125 x155) x125)))) (not (= (x106 (x106 x59 x155) x59) x155))) (not (= (x106 (x106 x21 x155) x21) x155)))) (or (or (or (and (and (and (and (not (= (x106 (x106 x125 x44) x125) x44)) (not (= x44 (x106 (x106 x44 x44) x44)))) (not (= (x106 (x106 x59 x44) x59) x44))) (not (= x44 (x106 (x106 x21 x44) x21)))) (not (= (x106 (x106 x155 x44) x155) x44))) (and (and (and (not (= x125 (x106 (x106 x59 x125) x59))) (and (not (= (x106 (x106 x125 x125) x125) x125)) (not (= x125 (x106 (x106 x44 x125) x44))))) (not (= x125 (x106 (x106 x21 x125) x21)))) (not (= x125 (x106 (x106 x155 x125) x155))))) (and (and (and (and (not (= (x106 (x106 x44 x59) x44) x59)) (not (= (x106 (x106 x125 x59) x125) x59))) (not (= x59 (x106 (x106 x59 x59) x59)))) (not (= (x106 (x106 x21 x59) x21) x59))) (not (= x59 (x106 (x106 x155 x59) x155))))) (and (not (= x21 (x106 (x106 x155 x21) x155))) (and (not (= (x106 (x106 x21 x21) x21) x21)) (and (and (not (= x21 (x106 (x106 x125 x21) x125))) (not (= x21 (x106 (x106 x44 x21) x44)))) (not (= x21 (x106 (x106 x59 x21) x59)))))))))
(assert (and (or (not (= x155 (x106 (x106 x155 x155) x155))) (or (or (or (not (= (x106 (x106 x125 x155) x155) x125)) (not (= (x106 (x106 x44 x155) x155) x44))) (not (= x59 (x106 (x106 x59 x155) x155)))) (not (= (x106 (x106 x21 x155) x155) x21)))) (and (and (or (not (= x155 (x106 (x106 x155 x59) x59))) (or (not (= (x106 (x106 x21 x59) x59) x21)) (or (or (not (= x44 (x106 (x106 x44 x59) x59))) (not (= (x106 (x106 x125 x59) x59) x125))) (not (= (x106 (x106 x59 x59) x59) x59))))) (and (or (or (or (not (= (x106 (x106 x59 x125) x125) x59)) (or (not (= (x106 (x106 x125 x125) x125) x125)) (not (= x44 (x106 (x106 x44 x125) x125))))) (not (= x21 (x106 (x106 x21 x125) x125)))) (not (= x155 (x106 (x106 x155 x125) x125)))) (or (or (or (or (not (= (x106 (x106 x125 x44) x44) x125)) (not (= x44 (x106 (x106 x44 x44) x44)))) (not (= (x106 (x106 x59 x44) x44) x59))) (not (= (x106 (x106 x21 x44) x44) x21))) (not (= (x106 (x106 x155 x44) x44) x155))))) (or (not (= (x106 (x106 x155 x21) x21) x155)) (or (not (= x21 (x106 (x106 x21 x21) x21))) (or (or (not (= (x106 (x106 x125 x21) x21) x125)) (not (= (x106 (x106 x44 x21) x21) x44))) (not (= (x106 (x106 x59 x21) x21) x59))))))))
(assert (and (or (or (or (or (= (x106 (x106 x155 x44) x155) x44) (= x125 (x106 (x106 x155 x125) x155))) (= (x106 (x106 x155 x59) x155) x59)) (= x21 (x106 (x106 x155 x21) x155))) (= (x106 (x106 x155 x155) x155) x155)) (and (or (= (x106 (x106 x21 x155) x21) x155) (or (or (= (x106 (x106 x21 x59) x21) x59) (or (= x44 (x106 (x106 x21 x44) x21)) (= x125 (x106 (x106 x21 x125) x21)))) (= x21 (x106 (x106 x21 x21) x21)))) (and (and (or (= x155 (x106 (x106 x44 x155) x44)) (or (= x21 (x106 (x106 x44 x21) x44)) (or (= x59 (x106 (x106 x44 x59) x44)) (or (= x125 (x106 (x106 x44 x125) x44)) (= x44 (x106 (x106 x44 x44) x44)))))) (or (or (= (x106 (x106 x125 x21) x125) x21) (or (= x59 (x106 (x106 x125 x59) x125)) (or (= x44 (x106 (x106 x125 x44) x125)) (= (x106 (x106 x125 x125) x125) x125)))) (= (x106 (x106 x125 x155) x125) x155))) (or (or (or (= x59 (x106 (x106 x59 x59) x59)) (or (= (x106 (x106 x59 x44) x59) x44) (= (x106 (x106 x59 x125) x59) x125))) (= (x106 (x106 x59 x21) x59) x21)) (= (x106 (x106 x59 x155) x59) x155))))))
(assert (let ((x5 (x106 x44 x44)) (x100 (x106 x21 x44)) (x23 (x106 x21 x59)) (x151 (x106 x125 x44)) (x45 (x106 x125 x125)) (x98 (x106 x155 x21)) (x63 (x106 x59 x125)) (x82 (x106 x44 x21)) (x19 (x106 x59 x21)) (x13 (x106 x155 x125)) (x40 (x106 x59 x155)) (x121 (x106 x44 x155)) (x97 (x106 x155 x59)) (x158 (x106 x59 x59)) (x116 (x106 x155 x155)) (x137 (x106 x21 x155)) (x10 (x106 x125 x59)) (x88 (x106 x44 x59)) (x26 (x106 x21 x21)) (x94 (x106 x59 x44)) (x102 (x106 x125 x21)) (x29 (x106 x44 x125)) (x117 (x106 x155 x44)) (x83 (x106 x125 x155)) (x73 (x106 x21 x125))) (let ((x20 (not (= x125 x63))) (x52 (not (= x125 x82))) (x148 (not (= x13 x155))) (x84 (not (= x44 x88))) (x153 (not (= x29 x44))) (x139 (not (= x59 x97))) (x14 (not (= x29 x125))) (x25 (not (= x125 x98))) (x56 (not (= x23 x125))) (x48 (not (= x102 x21))) (x28 (not (= x5 x44))) (x12 (not (= x59 x116))) (x142 (not (= x97 x21))) (x118 (not (= x44 x83))) (x132 (not (= x97 x125))) (x93 (not (= x19 x44))) (x57 (not (= x44 x73))) (x156 (not (= x40 x125))) (x136 (not (= x88 x59))) (x16 (not (= x44 x45))) (x66 (not (= x59 x83))) (x85 (not (= x59 x23))) (x80 (not (= x10 x21))) (x86 (not (= x5 x21))) (x127 (not (= x98 x155))) (x61 (not (= x100 x125))) (x123 (not (= x44 x26))) (x134 (not (= x63 x59))) (x17 (not (= x158 x59))) (x7 (not (= x23 x21))) (x53 (not (= x45 x155))) (x111 (not (= x88 x125))) (x115 (not (= x45 x125))) (x109 (not (= x125 x13))) (x89 (not (= x100 x59))) (x36 (not (= x59 x121))) (x30 (not (= x59 x40))) (x54 (not (= x44 x23))) (x64 (not (= x45 x59))) (x74 (not (= x5 x155))) (x105 (not (= x29 x59))) (x144 (not (= x45 x21))) (x46 (not (= x125 x102))) (x99 (not (= x102 x59))) (x124 (not (= x21 x117))) (x3 (not (= x73 x155))) (x60 (not (= x158 x125))) (x1 (not (= x21 x121))) (x128 (not (= x117 x44))) (x129 (not (= x116 x44))) (x87 (not (= x59 x151))) (x62 (not (= x137 x21))) (x6 (not (= x83 x155))) (x149 (not (= x88 x21))) (x31 (not (= x125 x116))) (x32 (not (= x137 x59))) (x101 (not (= x10 x155))) (x92 (not (= x59 x26))) (x27 (not (= x100 x44))) (x58 (not (= x59 x94))) (x41 (not (= x44 x13))) (x107 (not (= x44 x82))) (x4 (not (= x21 x94))) (x72 (not (= x155 x29))) (x79 (not (= x59 x13))) (x55 (not (= x94 x44))) (x103 (not (= x125 x117))) (x9 (not (= x102 x155))) (x113 (not (= x125 x26))) (x140 (not (= x59 x5))) (x49 (not (= x155 x121))) (x110 (not (= x21 x158))) (x112 (not (= x155 x88))) (x143 (not (= x94 x155))) (x65 (not (= x100 x155))) (x96 (not (= x155 x116))) (x114 (not (= x155 x151))) (x35 (not (= x21 x116))) (x38 (not (= x10 x125))) (x51 (not (= x21 x98))) (x131 (not (= x73 x21))) (x24 (not (= x21 x19))) (x130 (not (= x117 x155))) (x104 (not (= x98 x59))) (x91 (not (= x155 x63))) (x34 (not (= x13 x21))) (x70 (not (= x44 x40))) (x39 (not (= x82 x21))) (x133 (not (= x40 x155))) (x69 (not (= x44 x158))) (x90 (not (= x21 x151))) (x120 (not (= x44 x121))) (x2 (not (= x125 x83))) (x108 (not (= x10 x59))) (x138 (not (= x59 x117))) (x37 (not (= x10 x44))) (x141 (not (= x102 x44))) (x11 (not (= x26 x21))) (x135 (not (= x155 x97))) (x75 (not (= x19 x125))) (x67 (not (= x98 x44))) (x18 (not (= x59 x19))) (x43 (not (= x63 x44))) (x76 (not (= x59 x73))) (x71 (not (= x23 x155))) (x119 (not (= x83 x21))) (x122 (not (= x125 x73))) (x42 (not (= x125 x137))) (x15 (not (= x21 x100))) (x152 (not (= x155 x158))) (x22 (not (= x44 x97))) (x78 (not (= x82 x155))) (x95 (not (= x125 x121))) (x159 (not (= x44 x151))) (x81 (not (= x82 x59))) (x146 (not (= x125 x151))) (x150 (not (= x40 x21))) (x50 (not (= x44 x137))) (x126 (not (= x125 x94))) (x33 (not (= x125 x5))) (x8 (not (= x155 x26))) (x154 (not (= x137 x155))) (x47 (not (= x21 x63))) (x157 (not (= x19 x155))) (x145 (not (= x21 x29)))) (or (and (and (and (or x127 x154) (and (or x135 x133) (and (or x148 x6) (or x49 x130)))) (or x96 x96)) (and (and (and (and (or x157 x71) (and (and (or x91 x101) (or x143 x112)) (or x152 x152))) (or x135 x133)) (and (and (or x148 x6) (and (and (and (or x53 x53) (or x114 x72)) (or x91 x101)) (or x3 x9))) (and (or x49 x130) (and (or x78 x65) (and (and (or x72 x114) (or x74 x74)) (or x112 x143)))))) (and (or x127 x154) (and (or x8 x8) (and (and (or x78 x65) (or x9 x3)) (or x71 x157)))))) (or (or (or (and (and (and (or x42 x25) (and (and (or x56 x75) (and (or x61 x52) (or x46 x122))) (or x113 x113))) (and (and (and (or x2 x109) (and (and (and (or x115 x115) (or x14 x146)) (or x20 x38)) (or x122 x46))) (and (and (and (or x126 x111) (and (or x33 x33) (or x146 x14))) (or x52 x61)) (or x103 x95))) (and (and (or x56 x75) (and (and (or x126 x111) (or x20 x38)) (or x60 x60))) (or x156 x132)))) (and (or x31 x31) (and (and (or x156 x132) (and (or x109 x2) (or x103 x95))) (or x42 x25)))) (and (and (and (and (and (and (or x57 x141) (and (and (or x16 x16) (or x153 x159)) (or x37 x43))) (or x118 x41)) (and (and (and (and (or x28 x28) (or x159 x153)) (or x55 x84)) (or x107 x27)) (or x128 x120))) (and (or x22 x70) (and (and (or x69 x69) (and (or x43 x37) (or x55 x84))) (or x54 x93)))) (and (or x50 x67) (and (and (or x54 x93) (and (or x107 x27) (or x57 x141))) (or x123 x123)))) (and (or x129 x129) (and (and (or x22 x70) (and (or x128 x120) (or x41 x118))) (or x50 x67))))) (and (and (and (or x104 x32) (and (or x30 x139) (and (or x66 x79) (or x138 x36)))) (or x12 x12)) (and (and (and (or x30 x139) (and (and (and (or x136 x58) (or x134 x108)) (or x17 x17)) (or x18 x85))) (and (and (or x79 x66) (and (and (or x108 x134) (and (or x105 x87) (or x64 x64))) (or x99 x76))) (and (or x36 x138) (and (or x81 x89) (and (and (or x140 x140) (or x105 x87)) (or x136 x58)))))) (and (or x104 x32) (and (and (and (or x99 x76) (or x81 x89)) (or x85 x18)) (or x92 x92)))))) (and (and (and (or x51 x62) (and (or x11 x11) (and (or x24 x7) (and (or x39 x15) (or x48 x131))))) (and (and (and (and (or x15 x39) (and (and (or x145 x90) (or x86 x86)) (or x149 x4))) (or x1 x124)) (and (and (or x131 x48) (and (and (or x90 x145) (or x144 x144)) (or x47 x80))) (or x34 x119))) (and (or x142 x150) (and (or x7 x24) (and (or x110 x110) (and (or x80 x47) (or x4 x149))))))) (and (and (and (or x150 x142) (and (or x1 x124) (or x119 x34))) (or x62 x51)) (or x35 x35))))))))
(assert (let ((x132 (x106 x125 x155)) (x52 (x106 x59 x59)) (x156 (x106 x44 x155)) (x14 (x106 x44 x125)) (x109 (x106 x44 x21)) (x126 (x106 x44 x44)) (x60 (x106 x21 x44)) (x56 (x106 x21 x59)) (x146 (x106 x59 x125)) (x122 (x106 x155 x44)) (x20 (x106 x155 x125)) (x2 (x106 x59 x21)) (x38 (x106 x125 x44)) (x46 (x106 x125 x59)) (x61 (x106 x44 x59)) (x103 (x106 x21 x21)) (x111 (x106 x59 x44)) (x115 (x106 x125 x125)) (x33 (x106 x21 x125)) (x113 (x106 x125 x21)) (x25 (x106 x59 x155)) (x42 (x106 x21 x155)) (x75 (x106 x155 x59)) (x31 (x106 x155 x155)) (x95 (x106 x155 x21))) (and (and (and (and (and (and (and (not (= x122 x95)) (and (not (= x75 x122)) (and (not (= x20 x31)) (and (and (not (= x20 x75)) (not (= x20 x122))) (not (= x20 x95)))))) (not (= x31 x122))) (not (= x95 x75))) (not (= x31 x75))) (not (= x31 x95))) (and (and (and (and (and (not (= x46 x132)) (and (not (= x113 x46)) (and (not (= x132 x38)) (and (and (not (= x38 x46)) (and (not (= x132 x115)) (and (and (not (= x115 x38)) (not (= x115 x46))) (not (= x113 x115))))) (not (= x113 x38)))))) (not (= x113 x132))) (and (not (= x109 x156)) (and (and (and (not (= x156 x126)) (and (not (= x109 x126)) (and (not (= x61 x126)) (and (and (and (not (= x126 x14)) (not (= x61 x14))) (not (= x14 x109))) (not (= x14 x156)))))) (not (= x109 x61))) (not (= x61 x156))))) (and (and (not (= x52 x25)) (and (not (= x2 x52)) (and (and (and (not (= x111 x52)) (and (not (= x146 x25)) (and (not (= x2 x146)) (and (not (= x52 x146)) (not (= x111 x146)))))) (not (= x111 x2))) (not (= x25 x111))))) (not (= x25 x2)))) (and (not (= x42 x103)) (and (not (= x56 x42)) (and (not (= x103 x56)) (and (not (= x60 x42)) (and (and (not (= x60 x56)) (and (and (and (not (= x56 x33)) (not (= x33 x60))) (not (= x33 x103))) (not (= x33 x42)))) (not (= x103 x60))))))))) (and (and (and (and (and (not (= x33 x20)) (and (not (= x146 x20)) (and (not (= x146 x33)) (and (not (= x14 x20)) (and (and (and (and (and (not (= x115 x14)) (not (= x146 x115))) (not (= x33 x115))) (not (= x115 x20))) (not (= x146 x14))) (not (= x33 x14))))))) (and (and (and (not (= x60 x111)) (and (not (= x126 x122)) (and (not (= x60 x126)) (and (not (= x126 x111)) (and (and (and (not (= x38 x111)) (not (= x126 x38))) (not (= x60 x38))) (not (= x38 x122))))))) (not (= x111 x122))) (not (= x60 x122)))) (and (and (not (= x52 x75)) (and (and (not (= x75 x61)) (and (not (= x56 x61)) (and (and (not (= x75 x46)) (and (not (= x56 x46)) (and (not (= x46 x52)) (not (= x61 x46))))) (not (= x61 x52))))) (not (= x56 x52)))) (not (= x75 x56)))) (and (and (not (= x2 x95)) (and (not (= x2 x103)) (and (not (= x109 x95)) (and (not (= x109 x103)) (and (and (not (= x95 x113)) (and (and (not (= x2 x113)) (not (= x109 x113))) (not (= x113 x103)))) (not (= x2 x109))))))) (not (= x103 x95)))) (and (not (= x31 x42)) (and (and (and (and (and (not (= x156 x25)) (and (and (and (not (= x156 x132)) (not (= x25 x132))) (not (= x132 x42))) (not (= x132 x31)))) (not (= x42 x156))) (not (= x156 x31))) (not (= x25 x42))) (not (= x31 x25))))))))
(assert (let ((x156 (x106 x44 x155)) (x16 (x106 x155 x44)) (x136 (x106 x155 x21)) (x119 (x106 x155 x155)) (x20 (x106 x125 x21)) (x38 (x106 x125 x155)) (x121 (x106 x59 x59)) (x60 (x106 x59 x125)) (x146 (x106 x125 x44)) (x95 (x106 x44 x59)) (x14 (x106 x125 x125)) (x132 (x106 x44 x21)) (x33 (x106 x125 x59)) (x122 (x106 x21 x125)) (x105 (x106 x21 x21)) (x87 (x106 x21 x155)) (x158 (x106 x21 x59)) (x69 (x106 x155 x59)) (x43 (x106 x59 x155)) (x111 (x106 x44 x125)) (x46 (x106 x155 x125)) (x45 (x106 x21 x44)) (x103 (x106 x44 x44)) (x117 (x106 x59 x21)) (x31 (x106 x59 x44))) (let ((x73 (= x21 x103)) (x90 (= x155 x117)) (x93 (= x21 x121)) (x13 (= x155 x146)) (x113 (= x146 x125)) (x148 (= x46 x155)) (x74 (= x156 x59)) (x88 (= x125 x95)) (x19 (= x60 x59)) (x128 (= x45 x125)) (x78 (= x156 x21)) (x51 (= x44 x119)) (x15 (= x125 x87)) (x91 (= x43 x59)) (x116 (= x122 x44)) (x54 (= x21 x95)) (x139 (= x21 x117)) (x3 (= x21 x69)) (x86 (= x155 x105)) (x101 (= x59 x87)) (x58 (= x44 x105)) (x84 (= x44 x121)) (x145 (= x155 x132)) (x71 (= x21 x43)) (x55 (= x95 x44)) (x108 (= x117 x44)) (x34 (= x44 x136)) (x1 (= x44 x156)) (x81 (= x132 x59)) (x42 (= x103 x44)) (x22 (= x20 x125)) (x48 (= x43 x125)) (x10 (= x59 x103)) (x36 (= x132 x21)) (x79 (= x45 x21)) (x65 (= x38 x21)) (x123 (= x31 x155)) (x120 (= x125 x158)) (x28 (= x33 x125)) (x11 (= x44 x69)) (x67 (= x117 x125)) (x150 (= x87 x44)) (x115 (= x125 x14)) (x24 (= x16 x44)) (x154 (= x87 x155)) (x124 (= x38 x44)) (x39 (= x125 x119)) (x159 (= x125 x60)) (x27 (= x21 x31)) (x6 (= x16 x155)) (x98 (= x95 x155)) (x142 (= x44 x43)) (x40 (= x59 x33)) (x41 (= x121 x155)) (x99 (= x59 x158)) (x18 (= x105 x59)) (x30 (= x21 x105)) (x75 (= x111 x125)) (x138 (= x21 x20)) (x85 (= x117 x59)) (x109 (= x103 x125)) (x4 (= x69 x125)) (x97 (= x95 x59)) (x7 (= x46 x44)) (x5 (= x31 x125)) (x29 (= x146 x59)) (x50 (= x125 x105)) (x76 (= x45 x59)) (x61 (= x14 x59)) (x133 (= x156 x155)) (x137 (= x33 x155)) (x8 (= x21 x119)) (x52 (= x21 x14)) (x89 (= x20 x59)) (x47 (= x125 x46)) (x92 (= x122 x21)) (x35 (= x59 x16)) (x149 (= x136 x125)) (x25 (= x44 x146)) (x70 (= x125 x132)) (x129 (= x45 x44)) (x66 (= x21 x158)) (x151 (= x59 x111)) (x17 (= x59 x122)) (x152 (= x16 x21)) (x12 (= x158 x155)) (x56 (= x155 x14)) (x80 (= x125 x16)) (x104 (= x155 x122)) (x72 (= x136 x59)) (x127 (= x155 x43)) (x112 (= x21 x46)) (x100 (= x44 x31)) (x114 (= x59 x38)) (x82 (= x60 x44)) (x94 (= x121 x125)) (x135 (= x38 x155)) (x37 (= x33 x44)) (x141 (= x60 x21)) (x126 (= x44 x14)) (x131 (= x156 x125)) (x107 (= x33 x21)) (x83 (= x155 x111)) (x110 (= x125 x38)) (x57 (= x121 x59)) (x32 (= x155 x45)) (x64 (= x44 x158)) (x140 (= x20 x44)) (x9 (= x136 x21)) (x96 (= x155 x119)) (x49 (= x155 x136)) (x143 (= x119 x59)) (x63 (= x21 x111)) (x62 (= x59 x46)) (x53 (= x59 x69)) (x157 (= x21 x87)) (x2 (= x44 x111)) (x23 (= x31 x59)) (x153 (= x103 x155)) (x130 (= x155 x69)) (x26 (= x60 x155)) (x118 (= x125 x122)) (x144 (= x20 x155)) (x134 (= x132 x44)) (x102 (= x146 x21))) (and (and (and (and (and (and (and (or (or (or x141 (or x63 x52)) x92) x112) (or (or (or x107 (or x102 x52)) x138) x65)) (and (and (or (or x89 (or (or x29 x61) x40)) x114) (or (or x17 (or (or x61 x151) x19)) x62)) (and (and (or x124 (or x140 (or (or x126 x25) x37))) (or (or (or (or x126 x2) x82) x116) x7)) (and (or (or x118 (or x159 (or x75 x115))) x47) (or (or x22 (or (or x113 x115) x28)) x110))))) (and (or (or (or x137 (or x56 x13)) x144) x135) (or (or x104 (or (or x83 x56) x26)) x148))) (and (and (or (or x145 (or x98 (or x153 x83))) x133) (or (or (or (or x13 x153) x123) x32) x6)) (and (and (and (or (or x76 (or (or x10 x29) x23)) x35) (or (or (or (or x10 x151) x97) x81) x74)) (and (and (or (or (or x5 (or x113 x109)) x128) x80) (or (or (or x88 (or x75 x109)) x70) x131)) (and (or x1 (or x134 (or x55 (or x42 x2)))) (or x24 (or (or x100 (or x42 x25)) x129))))) (and (or x78 (or x36 (or (or x63 x73) x54))) (or x152 (or (or (or x73 x102) x27) x79)))))) (and (and (or (or (or x41 (or x98 x137)) x12) x130) (or (or x90 (or (or x123 x26) x41)) x127)) (and (and (and (and (or (or x64 (or (or x37 x55) x84)) x11) (or (or (or x84 (or x82 x100)) x108) x142)) (and (or x4 (or (or (or x28 x88) x94) x120)) (or (or (or (or x5 x159) x94) x67) x48))) (and (or x91 (or (or (or x23 x19) x57) x85)) (or (or x99 (or (or x40 x97) x57)) x53))) (and (or (or (or (or x107 x54) x93) x66) x3) (or (or (or x93 (or x141 x27)) x139) x71))))) (and (and (or (or (or x12 (or x32 x104)) x86) x154) (or x49 (or x86 (or (or x144 x145) x90)))) (and (and (and (or x101 (or x18 (or x99 (or x76 x17)))) (or (or (or x85 (or x89 x81)) x18) x72)) (and (and (or x150 (or x58 (or (or x116 x129) x64))) (or (or x58 (or x108 (or x134 x140))) x34)) (and (or x15 (or x50 (or x120 (or x118 x128)))) (or x149 (or (or x67 (or x22 x70)) x50))))) (and (or (or (or x66 (or x79 x92)) x30) x157) (or x9 (or x30 (or x139 (or x138 x36)))))))) (and (and (or x96 (or (or (or x133 x135) x127) x154)) (or x96 (or x49 (or (or x148 x6) x130)))) (and (and (or (or (or (or x112 x152) x3) x9) x8) (or x8 (or x157 (or (or x65 x78) x71)))) (and (and (or x143 (or (or (or x74 x114) x91) x101)) (or (or (or (or x35 x62) x53) x72) x143)) (and (and (or x39 (or (or (or x110 x131) x48) x15)) (or x39 (or (or x4 (or x80 x47)) x149))) (and (or (or (or (or x1 x124) x142) x150) x51) (or (or x34 (or x11 (or x7 x24))) x51))))))))))
(assert (or (and (not (= x155 (x106 x155 (x106 x155 x155)))) (and (not (= (x106 x21 (x106 x155 x21)) x155)) (and (and (not (= (x106 x44 (x106 x155 x44)) x155)) (not (= (x106 x125 (x106 x155 x125)) x155))) (not (= x155 (x106 x59 (x106 x155 x59))))))) (or (and (and (and (and (not (= x21 (x106 x44 (x106 x21 x44)))) (not (= x21 (x106 x125 (x106 x21 x125))))) (not (= (x106 x59 (x106 x21 x59)) x21))) (not (= (x106 x21 (x106 x21 x21)) x21))) (not (= x21 (x106 x155 (x106 x21 x155))))) (or (and (not (= (x106 x155 (x106 x59 x155)) x59)) (and (and (not (= x59 (x106 x59 (x106 x59 x59)))) (and (not (= (x106 x125 (x106 x59 x125)) x59)) (not (= (x106 x44 (x106 x59 x44)) x59)))) (not (= (x106 x21 (x106 x59 x21)) x59)))) (or (and (and (and (and (not (= x44 (x106 x44 (x106 x44 x44)))) (not (= (x106 x125 (x106 x44 x125)) x44))) (not (= x44 (x106 x59 (x106 x44 x59))))) (not (= (x106 x21 (x106 x44 x21)) x44))) (not (= x44 (x106 x155 (x106 x44 x155))))) (and (not (= x125 (x106 x155 (x106 x125 x155)))) (and (and (and (not (= (x106 x125 (x106 x125 x125)) x125)) (not (= x125 (x106 x44 (x106 x125 x44))))) (not (= x125 (x106 x59 (x106 x125 x59))))) (not (= x125 (x106 x21 (x106 x125 x21)))))))))))
(assert (let ((x61 (x106 x59 x44)) (x2 (x106 x21 x59)) (x111 (x106 x44 x59)) (x109 (x106 x21 x44)) (x95 (x106 x21 x155)) (x20 (x106 x125 x155)) (x122 (x106 x44 x155)) (x52 (x106 x59 x59)) (x132 (x106 x155 x125)) (x46 (x106 x59 x125)) (x33 (x106 x125 x21)) (x56 (x106 x59 x21)) (x103 (x106 x21 x21)) (x156 (x106 x155 x44)) (x113 (x106 x21 x125)) (x42 (x106 x155 x21)) (x75 (x106 x59 x155)) (x115 (x106 x125 x125)) (x38 (x106 x44 x125)) (x60 (x106 x44 x21)) (x25 (x106 x155 x59)) (x146 (x106 x125 x59)) (x126 (x106 x44 x44)) (x14 (x106 x125 x44)) (x31 (x106 x155 x155))) (and (and (and (and (and (and (and (and (or (or (or (= x115 x59) (or (= x115 x44) (= x115 x125))) (= x21 x115)) (= x115 x155)) (or (= x14 x155) (or (= x21 x14) (or (= x14 x59) (or (= x14 x125) (= x44 x14)))))) (or (or (or (= x146 x59) (or (= x146 x44) (= x125 x146))) (= x21 x146)) (= x155 x146))) (or (or (or (= x59 x33) (or (= x33 x125) (= x33 x44))) (= x33 x21)) (= x33 x155))) (or (= x20 x155) (or (or (= x59 x20) (or (= x44 x20) (= x125 x20))) (= x20 x21)))) (and (or (= x122 x155) (or (= x21 x122) (or (or (= x122 x44) (= x122 x125)) (= x59 x122)))) (and (and (or (or (= x21 x111) (or (= x59 x111) (or (= x111 x44) (= x125 x111)))) (= x155 x111)) (and (or (= x155 x126) (or (= x21 x126) (or (= x59 x126) (or (= x126 x125) (= x126 x44))))) (or (= x38 x155) (or (= x38 x21) (or (= x38 x59) (or (= x38 x125) (= x44 x38))))))) (or (or (= x21 x60) (or (= x59 x60) (or (= x44 x60) (= x125 x60)))) (= x60 x155))))) (and (or (or (or (= x59 x75) (or (= x125 x75) (= x75 x44))) (= x75 x21)) (= x155 x75)) (and (or (= x56 x155) (or (= x21 x56) (or (= x56 x59) (or (= x44 x56) (= x125 x56))))) (and (or (or (= x21 x52) (or (or (= x52 x44) (= x125 x52)) (= x52 x59))) (= x52 x155)) (and (or (or (or (or (= x61 x44) (= x61 x125)) (= x59 x61)) (= x61 x21)) (= x155 x61)) (or (= x155 x46) (or (or (= x46 x59) (or (= x44 x46) (= x46 x125))) (= x21 x46)))))))) (and (and (and (and (or (or (= x21 x109) (or (= x59 x109) (or (= x109 x125) (= x44 x109)))) (= x109 x155)) (or (or (= x21 x113) (or (= x113 x59) (or (= x113 x125) (= x113 x44)))) (= x155 x113))) (or (= x2 x155) (or (= x2 x21) (or (or (= x2 x44) (= x125 x2)) (= x59 x2))))) (or (= x103 x155) (or (or (or (= x103 x44) (= x103 x125)) (= x59 x103)) (= x103 x21)))) (or (= x95 x155) (or (or (= x59 x95) (or (= x95 x125) (= x44 x95))) (= x21 x95))))) (and (and (and (or (or (or (= x59 x25) (or (= x44 x25) (= x125 x25))) (= x21 x25)) (= x155 x25)) (and (or (or (= x21 x132) (or (= x132 x59) (or (= x132 x125) (= x132 x44)))) (= x155 x132)) (or (or (= x21 x156) (or (or (= x156 x125) (= x44 x156)) (= x59 x156))) (= x155 x156)))) (or (= x42 x155) (or (= x21 x42) (or (= x42 x59) (or (= x44 x42) (= x125 x42)))))) (or (= x31 x155) (or (or (or (= x44 x31) (= x31 x125)) (= x31 x59)) (= x21 x31)))))))
(assert (or (and (and (not (= (x106 x21 (x106 x155 x21)) x21)) (and (and (not (= x125 (x106 x125 (x106 x155 x125)))) (not (= (x106 x44 (x106 x155 x44)) x44))) (not (= (x106 x59 (x106 x155 x59)) x59)))) (not (= (x106 x155 (x106 x155 x155)) x155))) (or (or (or (and (and (not (= x21 (x106 x21 (x106 x44 x21)))) (and (not (= (x106 x59 (x106 x44 x59)) x59)) (and (not (= x125 (x106 x125 (x106 x44 x125)))) (not (= x44 (x106 x44 (x106 x44 x44))))))) (not (= (x106 x155 (x106 x44 x155)) x155))) (and (not (= (x106 x155 (x106 x125 x155)) x155)) (and (and (not (= (x106 x59 (x106 x125 x59)) x59)) (and (not (= (x106 x44 (x106 x125 x44)) x44)) (not (= x125 (x106 x125 (x106 x125 x125)))))) (not (= (x106 x21 (x106 x125 x21)) x21))))) (and (and (and (and (not (= (x106 x44 (x106 x59 x44)) x44)) (not (= x125 (x106 x125 (x106 x59 x125))))) (not (= (x106 x59 (x106 x59 x59)) x59))) (not (= x21 (x106 x21 (x106 x59 x21))))) (not (= x155 (x106 x155 (x106 x59 x155)))))) (and (and (not (= (x106 x21 (x106 x21 x21)) x21)) (and (not (= (x106 x59 (x106 x21 x59)) x59)) (and (not (= x125 (x106 x125 (x106 x21 x125)))) (not (= (x106 x44 (x106 x21 x44)) x44))))) (not (= x155 (x106 x155 (x106 x21 x155))))))))
(assert (and (= (x106 x44 x125) x21) (and (and (= x125 (x106 x155 x155)) (= x44 (x106 x125 x125))) (= (x106 x125 x155) x59))))
(assert (or (= (x106 x155 x155) x155) (or (= (x106 x21 x21) x21) (or (= (x106 x59 x59) x59) (or (= x44 (x106 x44 x44)) (= (x106 x125 x125) x125))))))
(assert (let ((x156 (x106 x59 x155)) (x61 (x106 x21 x44)) (x63 (x106 x125 x21)) (x33 (x106 x44 x44)) (x56 (x106 x21 x59)) (x122 (x106 x21 x125)) (x20 (x106 x59 x125)) (x111 (x106 x44 x59)) (x103 (x106 x155 x44)) (x75 (x106 x59 x21)) (x132 (x106 x155 x59)) (x109 (x106 x155 x125)) (x60 (x106 x59 x59)) (x73 (x106 x125 x155)) (x113 (x106 x21 x21)) (x25 (x106 x155 x21)) (x29 (x106 x125 x59)) (x31 (x106 x155 x155)) (x45 (x106 x125 x125)) (x126 (x106 x59 x44)) (x14 (x106 x44 x125)) (x95 (x106 x44 x155)) (x52 (x106 x44 x21)) (x42 (x106 x21 x155)) (x16 (x106 x125 x44))) (let ((x100 (not (= x21 x56))) (x46 (not (= x125 x63))) (x2 (not (= x125 x73))) (x83 (not (= x155 x109))) (x10 (not (= x20 x59))) (x121 (not (= x155 x132))) (x115 (not (= x125 x45))) (x158 (not (= x155 x31))) (x5 (not (= x52 x44))) (x88 (not (= x95 x44))) (x28 (not (= x61 x21))) (x94 (not (= x155 x103))) (x153 (not (= x44 x111))) (x43 (not (= x113 x21))) (x84 (not (= x42 x21))) (x38 (not (= x125 x29))) (x117 (not (= x59 x75))) (x151 (not (= x44 x14))) (x159 (not (= x59 x126))) (x82 (not (= x60 x59))) (x102 (not (= x21 x122))) (x146 (not (= x16 x125))) (x37 (not (= x25 x155))) (x55 (not (= x156 x59))) (x13 (not (= x44 x33)))) (or (or (or (and (and (or x158 (not (= x31 x59))) (and (or x84 (not (= x59 x25))) (and (or x55 (not (= x59 x132))) (and (or x2 (not (= x109 x59))) (or x88 (not (= x103 x59))))))) (and (and (or (not (= x42 x59)) x37) (and (and (and (or (not (= x59 x122)) x46) (or (not (= x61 x59)) x5)) (or x117 (not (= x59 x56)))) (or x43 (not (= x59 x113))))) (and (and (or x55 x121) (and (or x100 x117) (and (and (or x153 x159) (or x38 x10)) (or x82 x82)))) (and (and (or (not (= x95 x59)) x94) (and (and (and (or (not (= x14 x59)) x146) (or x13 (not (= x59 x33)))) (or (not (= x59 x111)) x159)) (or (not (= x52 x59)) x28))) (and (or x83 (not (= x73 x59))) (and (or x102 (not (= x59 x63))) (and (and (or x151 (not (= x59 x16))) (or (not (= x59 x45)) x115)) (or x10 (not (= x59 x29)))))))))) (or (and (and (and (and (and (or x117 (not (= x56 x125))) (and (or x46 (not (= x125 x122))) (or (not (= x125 x61)) x5))) (or (not (= x125 x113)) x43)) (or x37 (not (= x42 x125)))) (and (and (and (and (and (and (or x115 x115) (or x146 x151)) (or x38 x10)) (or x102 x46)) (or x83 x2)) (and (and (and (and (or (not (= x125 x14)) x146) (or (not (= x33 x125)) x13)) (or x159 (not (= x111 x125)))) (or (not (= x125 x52)) x28)) (or x94 (not (= x95 x125))))) (and (and (and (or (not (= x125 x60)) x82) (and (or (not (= x125 x20)) x38) (or (not (= x125 x126)) x153))) (or (not (= x125 x75)) x100)) (or x121 (not (= x156 x125)))))) (and (and (and (or x55 (not (= x125 x132))) (and (or (not (= x109 x125)) x2) (or (not (= x103 x125)) x88))) (or x84 (not (= x25 x125)))) (or (not (= x31 x125)) x158))) (and (and (and (or x84 (not (= x44 x25))) (and (or (not (= x132 x44)) x55) (and (or x88 (not (= x103 x44))) (or (not (= x109 x44)) x2)))) (or (not (= x31 x44)) x158)) (and (and (and (and (and (or x5 (not (= x61 x44))) (or x46 (not (= x122 x44)))) (or (not (= x44 x56)) x117)) (or x43 (not (= x44 x113)))) (or (not (= x42 x44)) x37)) (and (and (or x121 (not (= x44 x156))) (and (and (or (not (= x44 x60)) x82) (and (or (not (= x44 x126)) x153) (or x38 (not (= x44 x20))))) (or x100 (not (= x75 x44))))) (and (and (or x94 x88) (and (and (and (or x151 x146) (or x13 x13)) (or x159 x153)) (or x28 x5))) (and (and (or (not (= x44 x63)) x102) (and (and (or (not (= x45 x44)) x115) (or x151 (not (= x44 x16)))) (or x10 (not (= x29 x44))))) (or (not (= x44 x73)) x83)))))))) (and (and (and (and (or x43 x43) (and (or x100 x117) (and (or x28 x5) (or x102 x46)))) (or x84 x37)) (and (and (and (and (and (or (not (= x21 x126)) x153) (or x38 (not (= x21 x20)))) (or (not (= x60 x21)) x82)) (or x100 (not (= x75 x21)))) (or (not (= x156 x21)) x121)) (and (and (and (and (and (or (not (= x45 x21)) x115) (or x151 (not (= x16 x21)))) (or x10 (not (= x29 x21)))) (or x102 (not (= x21 x63)))) (or x83 (not (= x21 x73)))) (and (and (and (or x159 (not (= x111 x21))) (and (or x13 (not (= x33 x21))) (or x146 (not (= x14 x21))))) (or x28 (not (= x52 x21)))) (or (not (= x21 x95)) x94))))) (and (and (or x84 (not (= x25 x21))) (and (or x55 (not (= x21 x132))) (and (or (not (= x109 x21)) x2) (or x88 (not (= x21 x103)))))) (or x158 (not (= x21 x31)))))) (and (and (and (and (and (and (and (or (not (= x155 x29)) x10) (and (or (not (= x16 x155)) x151) (or (not (= x155 x45)) x115))) (or x102 (not (= x63 x155)))) (or (not (= x155 x73)) x83)) (and (and (and (and (or (not (= x155 x33)) x13) (or (not (= x14 x155)) x146)) (or (not (= x155 x111)) x159)) (or (not (= x52 x155)) x28)) (or (not (= x155 x95)) x94))) (and (and (or (not (= x75 x155)) x100) (and (and (or x38 (not (= x155 x20))) (or x153 (not (= x126 x155)))) (or x82 (not (= x60 x155))))) (or (not (= x155 x156)) x121))) (and (and (or x43 (not (= x113 x155))) (and (or (not (= x155 x56)) x117) (and (or x46 (not (= x155 x122))) (or x5 (not (= x155 x61)))))) (or (not (= x155 x42)) x37))) (and (or x158 x158) (and (or x37 x84) (and (or x55 x121) (and (or x88 x94) (or x83 x2))))))))))
(assert (let ((x33 (x106 x21 x21)) (x20 (x106 x155 x155)) (x146 (x106 x59 x59)) (x14 (x106 x44 x44)) (x115 (x106 x125 x125))) (or (and (not (= x155 x20)) (and (not (= x33 x155)) (and (and (not (= x115 x155)) (not (= x155 x14))) (not (= x155 x146))))) (or (or (and (not (= x59 x20)) (and (and (and (not (= x59 x115)) (not (= x14 x59))) (not (= x59 x146))) (not (= x59 x33)))) (or (and (not (= x20 x44)) (and (and (not (= x146 x44)) (and (not (= x14 x44)) (not (= x44 x115)))) (not (= x33 x44)))) (and (and (and (not (= x125 x146)) (and (not (= x125 x115)) (not (= x14 x125)))) (not (= x33 x125))) (not (= x125 x20))))) (and (not (= x21 x20)) (and (not (= x33 x21)) (and (not (= x21 x146)) (and (not (= x115 x21)) (not (= x21 x14))))))))))
(assert (or (or (and (and (and (not (= x59 (x106 x21 (x106 x21 x59)))) (and (not (= x125 (x106 x21 (x106 x21 x125)))) (not (= (x106 x21 (x106 x21 x44)) x44)))) (not (= x21 (x106 x21 (x106 x21 x21))))) (not (= (x106 x21 (x106 x21 x155)) x155))) (or (and (and (not (= (x106 x59 (x106 x59 x21)) x21)) (and (and (not (= (x106 x59 (x106 x59 x44)) x44)) (not (= x125 (x106 x59 (x106 x59 x125))))) (not (= (x106 x59 (x106 x59 x59)) x59)))) (not (= x155 (x106 x59 (x106 x59 x155))))) (or (and (and (not (= x21 (x106 x125 (x106 x125 x21)))) (and (and (not (= x44 (x106 x125 (x106 x125 x44)))) (not (= (x106 x125 (x106 x125 x125)) x125))) (not (= x59 (x106 x125 (x106 x125 x59)))))) (not (= (x106 x125 (x106 x125 x155)) x155))) (and (not (= x155 (x106 x44 (x106 x44 x155)))) (and (not (= (x106 x44 (x106 x44 x21)) x21)) (and (and (not (= x44 (x106 x44 (x106 x44 x44)))) (not (= x125 (x106 x44 (x106 x44 x125))))) (not (= (x106 x44 (x106 x44 x59)) x59)))))))) (and (not (= (x106 x155 (x106 x155 x155)) x155)) (and (not (= (x106 x155 (x106 x155 x21)) x21)) (and (not (= (x106 x155 (x106 x155 x59)) x59)) (and (not (= (x106 x155 (x106 x155 x44)) x44)) (not (= (x106 x155 (x106 x155 x125)) x125))))))))
(assert (and (and (and (and (not (= x44 x155)) (and (and (not (= x59 x44)) (and (not (= x125 x155)) (and (and (not (= x59 x125)) (not (= x44 x125))) (not (= x21 x125))))) (not (= x21 x44)))) (not (= x21 x59))) (not (= x59 x155))) (not (= x21 x155))))
(assert (let ((x52 (x106 x59 x59)) (x42 (x106 x21 x155)) (x20 (x106 x155 x125)) (x56 (x106 x21 x59)) (x25 (x106 x59 x155)) (x60 (x106 x21 x44)) (x109 (x106 x44 x21)) (x146 (x106 x59 x125)) (x46 (x106 x125 x59)) (x61 (x106 x44 x59)) (x113 (x106 x125 x21)) (x156 (x106 x44 x155)) (x38 (x106 x125 x44)) (x103 (x106 x21 x21)) (x75 (x106 x155 x59)) (x2 (x106 x59 x21)) (x111 (x106 x59 x44)) (x33 (x106 x21 x125)) (x14 (x106 x44 x125)) (x132 (x106 x125 x155)) (x122 (x106 x155 x44)) (x126 (x106 x44 x44)) (x115 (x106 x125 x125)) (x95 (x106 x155 x21)) (x31 (x106 x155 x155))) (or (and (and (not (= (x106 x42 x42) x21)) (and (and (not (= x44 (x106 x156 x156))) (not (= x125 (x106 x132 x132)))) (not (= (x106 x25 x25) x59)))) (not (= x155 (x106 x31 x31)))) (or (and (not (= x155 (x106 x95 x95))) (and (not (= (x106 x103 x103) x21)) (and (and (not (= x125 (x106 x113 x113))) (not (= x44 (x106 x109 x109)))) (not (= (x106 x2 x2) x59))))) (or (and (and (not (= x21 (x106 x56 x56))) (and (and (not (= (x106 x46 x46) x125)) (not (= x44 (x106 x61 x61)))) (not (= (x106 x52 x52) x59)))) (not (= x155 (x106 x75 x75)))) (or (and (and (and (and (not (= (x106 x14 x14) x44)) (not (= (x106 x115 x115) x125))) (not (= x59 (x106 x146 x146)))) (not (= (x106 x33 x33) x21))) (not (= x155 (x106 x20 x20)))) (and (not (= (x106 x122 x122) x155)) (and (and (not (= (x106 x111 x111) x59)) (and (not (= x125 (x106 x38 x38))) (not (= x44 (x106 x126 x126))))) (not (= (x106 x60 x60) x21))))))))))
(check-sat)
(exit)
